; ./prepared/jayhorn/./sv-comp-2020/jbmc-regression/StringValueOf07/smt-output-with-inlining/jayhorn-tmp_1_000.smt2
(set-logic HORN)


(declare-fun |<Main: void main(JayArray_java_lang_String)>_Block14_5| ( Int Int Int Int Int Int Int Int Int Int Int Int Int Int Int Int Int Int Int Int Int Int Int Int Int Int Int Int Int Int Int Int Int Int Int Int Int Int Int Int Int Int Int Int Int Int Int Int Int Int Int Int Int Int Int Int Int Int Int Int Int Int Int Int Int Int Int Int Int Int Int Int Int ) Bool)
(declare-fun |<Main: void main(JayArray_java_lang_String)>_pre| ( Int Int Int Int Int Int Int Int Int Int Int Int Int Int Int Int Int Int Int Int Int Int Int Int Int Int Int Int Int Int Int Int ) Bool)
(declare-fun |<Main: void main(JayArray_java_lang_String)>_Block14_1| ( Int Int Int Int Int Int Int Int Int Int Int Int Int Int Int Int Int Int Int Int Int Int Int Int Int Int Int Int Int Int Int Int Int Int Int Int Int Int Int Int Int Int Int Int Int Int Int Int Int Int Int Int Int Int Int Int Int Int Int Int Int Int Int Int Int Int Int Int Int Int Int Int Int Int Int Int Int Int Int Int Int Int Int Int ) Bool)
(declare-fun |Assert #0: Main.java, line 13| ( ) Bool)
(declare-fun |<Main: void main(JayArray_java_lang_String)>_Block14_9| ( Int Int Int Int Int Int Int Int Int Int Int Int Int Int Int Int Int Int Int Int Int Int Int Int Int Int Int Int Int Int Int Int Int Int Int Int Int Int Int Int Int Int Int Int Int Int Int Int Int Int Int Int Int Int Int Int Int Int Int Int Int Int Int Int Int Int Int Int Int Int ) Bool)
(declare-fun |<Main: void main(JayArray_java_lang_String)>_Block14_3| ( Int Int Int Int Int Int Int Int Int Int Int Int Int Int Int Int Int Int Int Int Int Int Int Int Int Int Int Int Int Int Int Int Int Int Int Int Int Int Int Int Int Int Int Int Int Int Int Int Int Int Int Int Int Int Int Int Int Int Int Int Int Int Int Int Int Int Int Int Int Int Int Int Int Int Int Int Int Int Int Int ) Bool)
(declare-fun |<Main: void main(JayArray_java_lang_String)>_Block14| ( Int Int Int Int Int Int Int Int Int Int Int Int Int Int Int Int Int Int Int Int Int Int Int Int Int Int Int Int Int Int Int Int Int Int Int Int Int Int Int Int Int Int Int Int Int Int Int Int Int Int Int Int Int Int Int Int Int Int Int Int Int Int Int Int Int Int Int Int Int Int Int Int Int Int Int Int Int Int Int Int Int Int Int Int Int Int Int Int Int Int Int Int Int Int Int Int Int Int Int Int Int Int Int Int Int Int Int Int Int Int Int Int Int ) Bool)
(declare-fun |<Main: void main(JayArray_java_lang_String)>_Block14_10| ( Int Int Int Int Int Int Int Int Int Int Int Int Int Int Int Int Int Int Int Int Int Int Int Int Int Int Int Int Int Int Int Int Int Int Int Int Int Int Int Int Int Int Int Int Int Int Int Int Int Int Int Int Int Int Int Int Int Int Int Int Int Int Int Int Int Int Int Int Int Int Int ) Bool)
(declare-fun |<Main: void main(JayArray_java_lang_String)>_Block14_8| ( Int Int Int Int Int Int Int Int Int Int Int Int Int Int Int Int Int Int Int Int Int Int Int Int Int Int Int Int Int Int Int Int Int Int Int Int Int Int Int Int Int Int Int Int Int Int Int Int Int Int Int Int Int Int Int Int Int Int Int Int Int Int Int Int Int Int Int Int Int Int ) Bool)
(declare-fun |<Main: void main(JayArray_java_lang_String)>_Block14_7| ( Int Int Int Int Int Int Int Int Int Int Int Int Int Int Int Int Int Int Int Int Int Int Int Int Int Int Int Int Int Int Int Int Int Int Int Int Int Int Int Int Int Int Int Int Int Int Int Int Int Int Int Int Int Int Int Int Int Int Int Int Int Int Int Int Int Int Int Int Int Int ) Bool)
(declare-fun |<Main: void main(JayArray_java_lang_String)>_Block14_2| ( Int Int Int Int Int Int Int Int Int Int Int Int Int Int Int Int Int Int Int Int Int Int Int Int Int Int Int Int Int Int Int Int Int Int Int Int Int Int Int Int Int Int Int Int Int Int Int Int Int Int Int Int Int Int Int Int Int Int Int Int Int Int Int Int Int Int Int Int Int Int Int Int Int Int Int Int Int Int Int Int Int Int Int ) Bool)
(declare-fun |<Main: void main(JayArray_java_lang_String)>_Block14_4| ( Int Int Int Int Int Int Int Int Int Int Int Int Int Int Int Int Int Int Int Int Int Int Int Int Int Int Int Int Int Int Int Int Int Int Int Int Int Int Int Int Int Int Int Int Int Int Int Int Int Int Int Int Int Int Int Int Int Int Int Int Int Int Int Int Int Int Int Int Int Int Int Int ) Bool)
(declare-fun |<Main: void main(JayArray_java_lang_String)>_Block14_6| ( Int Int Int Int Int Int Int Int Int Int Int Int Int Int Int Int Int Int Int Int Int Int Int Int Int Int Int Int Int Int Int Int Int Int Int Int Int Int Int Int Int Int Int Int Int Int Int Int Int Int Int Int Int Int Int Int Int Int Int Int Int Int Int Int Int Int Int Int Int Int Int Int Int ) Bool)

(assert
  (forall ( (A Int) (B Int) (C Int) (D Int) (E Int) (F Int) (G Int) (H Int) (I Int) (J Int) (K Int) (L Int) (M Int) (N Int) (O Int) (P Int) (Q Int) (R Int) (S Int) (T Int) (U Int) (V Int) (W Int) (X Int) (Y Int) (Z Int) (A1 Int) (B1 Int) (C1 Int) (D1 Int) (E1 Int) (F1 Int) (G1 Int) (H1 Int) (I1 Int) (J1 Int) (K1 Int) (L1 Int) (M1 Int) (N1 Int) (O1 Int) (P1 Int) (Q1 Int) (R1 Int) (S1 Int) (T1 Int) (U1 Int) (V1 Int) (W1 Int) (X1 Int) (Y1 Int) (Z1 Int) (A2 Int) (B2 Int) (C2 Int) (D2 Int) (E2 Int) (F2 Int) (G2 Int) (H2 Int) (I2 Int) (J2 Int) (K2 Int) (L2 Int) (M2 Int) (N2 Int) (O2 Int) (P2 Int) (Q2 Int) (R2 Int) (S2 Int) (T2 Int) (U2 Int) (V2 Int) (W2 Int) (X2 Int) (Y2 Int) (Z2 Int) (A3 Int) (B3 Int) (C3 Int) (D3 Int) (v_82 Int) (v_83 Int) (v_84 Int) (v_85 Int) (v_86 Int) (v_87 Int) (v_88 Int) (v_89 Int) (v_90 Int) (v_91 Int) (v_92 Int) (v_93 Int) (v_94 Int) (v_95 Int) (v_96 Int) (v_97 Int) (v_98 Int) (v_99 Int) (v_100 Int) (v_101 Int) (v_102 Int) (v_103 Int) (v_104 Int) (v_105 Int) (v_106 Int) (v_107 Int) (v_108 Int) (v_109 Int) (v_110 Int) (v_111 Int) (v_112 Int) ) 
    (=>
      (and
        (|<Main: void main(JayArray_java_lang_String)>_pre|
  C3
  T2
  U1
  R1
  J
  A
  S2
  J1
  A3
  O2
  R
  F2
  I2
  M
  V
  N
  E2
  F
  K1
  J2
  H
  R2
  E
  M2
  Z2
  P2
  B3
  W1
  V1
  D3
  B
  Q)
        (and (= v_82 C3)
     (= v_83 T2)
     (= v_84 U1)
     (= v_85 R1)
     (= v_86 A)
     (= v_87 S2)
     (= v_88 J1)
     (= v_89 A3)
     (= v_90 O2)
     (= v_91 R)
     (= v_92 F2)
     (= v_93 I2)
     (= v_94 M)
     (= v_95 V)
     (= v_96 N)
     (= v_97 E2)
     (= v_98 F)
     (= v_99 K1)
     (= v_100 J2)
     (= v_101 H)
     (= v_102 R2)
     (= v_103 E)
     (= v_104 M2)
     (= v_105 Z2)
     (= v_106 P2)
     (= v_107 B3)
     (= v_108 W1)
     (= v_109 V1)
     (= v_110 D3)
     (= v_111 B)
     (= v_112 Q))
      )
      (|<Main: void main(JayArray_java_lang_String)>_Block14|
  C3
  T2
  U1
  R1
  J
  A
  S2
  J1
  A3
  O2
  R
  F2
  I2
  M
  V
  N
  E2
  F
  K1
  J2
  H
  R2
  E
  M2
  Z2
  P2
  B3
  W1
  V1
  D3
  B
  Q
  G1
  K
  O1
  O
  F1
  G
  L
  I
  H2
  E1
  D
  P
  Y2
  S1
  X2
  T
  K2
  B2
  T1
  v_82
  v_83
  v_84
  v_85
  X1
  C
  N1
  M1
  A2
  C2
  A1
  Z
  L2
  Z1
  Q1
  D1
  U
  P1
  W2
  L1
  X
  C1
  W
  I1
  G2
  S
  N2
  Y
  B1
  Y1
  Q2
  U2
  H1
  D2
  V2
  v_86
  v_87
  v_88
  v_89
  v_90
  v_91
  v_92
  v_93
  v_94
  v_95
  v_96
  v_97
  v_98
  v_99
  v_100
  v_101
  v_102
  v_103
  v_104
  v_105
  v_106
  v_107
  v_108
  v_109
  v_110
  v_111
  v_112)
    )
  )
)
(assert
  (forall ( (A Int) (B Int) (C Int) (D Int) (E Int) (F Int) (G Int) (H Int) (I Int) (J Int) (K Int) (L Int) (M Int) (N Int) (O Int) (P Int) (Q Int) (R Int) (S Int) (T Int) (U Int) (V Int) (W Int) (X Int) (Y Int) (Z Int) (A1 Int) (B1 Int) (C1 Int) (D1 Int) (E1 Int) (F1 Int) (G1 Int) (H1 Int) (I1 Int) (J1 Int) (K1 Int) (L1 Int) (M1 Int) (N1 Int) (O1 Int) (P1 Int) (Q1 Int) (R1 Int) (S1 Int) (T1 Int) (U1 Int) (V1 Int) (W1 Int) (X1 Int) (Y1 Int) (Z1 Int) (A2 Int) (B2 Int) (C2 Int) (D2 Int) (E2 Int) (F2 Int) (G2 Int) (H2 Int) (I2 Int) (J2 Int) (K2 Int) (L2 Int) (M2 Int) (N2 Int) (O2 Int) (P2 Int) (Q2 Int) (R2 Int) (S2 Int) (T2 Int) (U2 Int) (V2 Int) (W2 Int) (X2 Int) (Y2 Int) (Z2 Int) (A3 Int) (B3 Int) (C3 Int) (D3 Int) (E3 Int) (F3 Int) (G3 Int) (H3 Int) (I3 Int) (J3 Int) (K3 Int) (L3 Int) (M3 Int) (N3 Int) (O3 Int) (P3 Int) (Q3 Int) (R3 Int) (S3 Int) (T3 Int) (U3 Int) (V3 Int) (W3 Int) (X3 Int) (Y3 Int) (Z3 Int) (A4 Int) (B4 Int) (C4 Int) (D4 Int) (E4 Int) (F4 Int) (v_110 Int) (v_111 Int) (v_112 Int) (v_113 Int) (v_114 Int) (v_115 Int) (v_116 Int) (v_117 Int) ) 
    (=>
      (and
        (|<Main: void main(JayArray_java_lang_String)>_Block14|
  X2
  K2
  J3
  M2
  S1
  H2
  F3
  W2
  F2
  U3
  L1
  X3
  V2
  D2
  U2
  D3
  G
  Z2
  A1
  B3
  W
  D
  P1
  U
  G2
  M
  B1
  X1
  T2
  A
  L
  P
  G1
  F
  S3
  M3
  H3
  J
  S2
  E1
  N2
  L2
  A3
  I
  W1
  Y
  I3
  E2
  I1
  K1
  V3
  v_110
  v_111
  v_112
  v_113
  R
  Q1
  C3
  Z
  Y1
  E3
  N1
  F4
  N3
  Q3
  H1
  W3
  R2
  Z3
  T3
  P3
  O1
  E4
  C1
  O2
  T
  J2
  D1
  L3
  Q2
  V
  R3
  D4
  U1
  G3
  A2
  O
  C4
  B
  V1
  K
  F1
  O3
  E
  B2
  Y2
  T1
  M1
  B4
  J1
  N
  C
  S
  R1
  Y3
  X
  K3
  I2
  A4
  C2
  Z1
  H
  P2)
        (and (= v_110 X2)
     (= v_111 K2)
     (= v_112 J3)
     (= v_113 M2)
     (= Q 1)
     (= v_114 X2)
     (= v_115 K2)
     (= v_116 J3)
     (= v_117 M2))
      )
      (|<Main: void main(JayArray_java_lang_String)>_Block14_1|
  X2
  K2
  J3
  M2
  S1
  H2
  F3
  W2
  F2
  U3
  L1
  X3
  V2
  D2
  U2
  D3
  G
  Z2
  A1
  B3
  W
  D
  P1
  U
  G2
  M
  B1
  X1
  T2
  A
  L
  P
  G1
  F
  S3
  M3
  H3
  J
  v_114
  v_115
  v_116
  v_117
  N3
  Q3
  H1
  W3
  R2
  Z3
  P3
  Q
  Q2
  V
  R3
  D4
  U1
  G3
  A2
  O
  C4
  B
  V1
  K
  F1
  O3
  E
  B2
  Y2
  T1
  M1
  B4
  J1
  N
  C
  S
  R1
  Y3
  X
  K3
  I2
  A4
  C2
  Z1
  H
  P2)
    )
  )
)
(assert
  (forall ( (A Int) (B Int) (C Int) (D Int) (E Int) (F Int) (G Int) (H Int) (I Int) (J Int) (K Int) (L Int) (M Int) (N Int) (O Int) (P Int) (Q Int) (R Int) (S Int) (T Int) (U Int) (V Int) (W Int) (X Int) (Y Int) (Z Int) (A1 Int) (B1 Int) (C1 Int) (D1 Int) (E1 Int) (F1 Int) (G1 Int) (H1 Int) (I1 Int) (J1 Int) (K1 Int) (L1 Int) (M1 Int) (N1 Int) (O1 Int) (P1 Int) (Q1 Int) (R1 Int) (S1 Int) (T1 Int) (U1 Int) (V1 Int) (W1 Int) (X1 Int) (Y1 Int) (Z1 Int) (A2 Int) (B2 Int) (C2 Int) (D2 Int) (E2 Int) (F2 Int) (G2 Int) (H2 Int) (I2 Int) (J2 Int) (K2 Int) (L2 Int) (M2 Int) (N2 Int) (O2 Int) (P2 Int) (Q2 Int) (R2 Int) (S2 Int) (T2 Int) (U2 Int) (V2 Int) (W2 Int) (X2 Int) (Y2 Int) (Z2 Int) (A3 Int) (B3 Int) (v_80 Int) (v_81 Int) (v_82 Int) (v_83 Int) (v_84 Int) (v_85 Int) (v_86 Int) (v_87 Int) ) 
    (=>
      (and
        (|<Main: void main(JayArray_java_lang_String)>_Block14_1|
  N1
  G1
  Z2
  R1
  X1
  V
  K
  E
  I2
  E1
  I1
  M1
  K1
  A2
  D1
  J1
  F2
  Y2
  H1
  E2
  U
  Y
  B
  U1
  Z
  S
  L
  T
  F
  W2
  M
  X2
  B3
  S2
  F1
  G
  V2
  K2
  v_80
  v_81
  v_82
  v_83
  R
  L1
  I
  B1
  W
  H2
  L2
  J2
  N2
  H
  T1
  W1
  Q1
  N
  X
  Y1
  T2
  O
  O2
  B2
  C
  R2
  P
  C1
  Q
  M2
  C2
  A1
  P2
  S1
  D
  D2
  V1
  J
  Z1
  G2
  U2
  A3
  Q2
  P1
  O1
  A)
        (and (= v_80 N1)
     (= v_81 G1)
     (= v_82 Z2)
     (= v_83 R1)
     (= G1 141)
     (<= 0 R1)
     (= N1 1)
     (= v_84 N1)
     (= v_85 G1)
     (= v_86 Z2)
     (= v_87 R1))
      )
      (|<Main: void main(JayArray_java_lang_String)>_Block14_2|
  N1
  G1
  Z2
  R1
  X1
  V
  K
  E
  I2
  E1
  I1
  M1
  K1
  A2
  D1
  J1
  F2
  Y2
  H1
  E2
  U
  Y
  B
  U1
  Z
  S
  L
  T
  F
  W2
  M
  X2
  B3
  S2
  F1
  G
  V2
  K2
  v_84
  v_85
  v_86
  v_87
  R
  L1
  I
  B1
  W
  H2
  J2
  N2
  H
  T1
  W1
  Q1
  N
  X
  Y1
  T2
  O
  O2
  B2
  C
  R2
  P
  C1
  Q
  M2
  C2
  A1
  P2
  S1
  D
  D2
  V1
  J
  Z1
  G2
  U2
  A3
  Q2
  P1
  O1
  A)
    )
  )
)
(assert
  (forall ( (A Int) (B Int) (C Int) (D Int) (E Int) (F Int) (G Int) (H Int) (I Int) (J Int) (K Int) (L Int) (M Int) (N Int) (O Int) (P Int) (Q Int) (R Int) (S Int) (T Int) (U Int) (V Int) (W Int) (X Int) (Y Int) (Z Int) (A1 Int) (B1 Int) (C1 Int) (D1 Int) (E1 Int) (F1 Int) (G1 Int) (H1 Int) (I1 Int) (J1 Int) (K1 Int) (L1 Int) (M1 Int) (N1 Int) (O1 Int) (P1 Int) (Q1 Int) (R1 Int) (S1 Int) (T1 Int) (U1 Int) (V1 Int) (W1 Int) (X1 Int) (Y1 Int) (Z1 Int) (A2 Int) (B2 Int) (C2 Int) (D2 Int) (E2 Int) (F2 Int) (G2 Int) (H2 Int) (I2 Int) (J2 Int) (K2 Int) (L2 Int) (M2 Int) (N2 Int) (O2 Int) (P2 Int) (Q2 Int) (R2 Int) (S2 Int) (T2 Int) (U2 Int) (V2 Int) (W2 Int) (X2 Int) (Y2 Int) (Z2 Int) (A3 Int) (B3 Int) (C3 Int) (v_81 Int) (v_82 Int) (v_83 Int) (v_84 Int) (v_85 Int) (v_86 Int) (v_87 Int) (v_88 Int) ) 
    (=>
      (and
        (|<Main: void main(JayArray_java_lang_String)>_Block14_2|
  C1
  R
  Q
  J
  I
  N
  D
  C
  F1
  K2
  T2
  P
  A1
  A3
  Q2
  F2
  I2
  U
  A
  J2
  Z1
  D2
  S
  T1
  I1
  E
  E1
  C3
  G
  F
  X
  W
  M
  W1
  S2
  V2
  B1
  O1
  v_81
  v_82
  v_83
  v_84
  U2
  L
  O
  H2
  Z2
  J1
  B
  X1
  R1
  P1
  G1
  V
  T
  N2
  Z
  Y
  O2
  P2
  R2
  G2
  H
  S1
  A2
  N1
  C2
  B2
  V1
  W2
  K
  K1
  M2
  M1
  U1
  E2
  L1
  Y2
  D1
  Y1
  L2
  H1
  B3)
        (and (= v_81 C1)
     (= v_82 R)
     (= v_83 Q)
     (= v_84 J)
     (= Q1 1)
     (= v_85 C1)
     (= v_86 R)
     (= v_87 Q)
     (= v_88 J))
      )
      (|<Main: void main(JayArray_java_lang_String)>_Block14_3|
  C1
  R
  Q
  J
  I
  N
  D
  C
  F1
  K2
  T2
  P
  A1
  A3
  Q2
  F2
  I2
  U
  A
  J2
  Z1
  D2
  S
  T1
  I1
  E
  E1
  C3
  G
  F
  X
  W
  V2
  B1
  O1
  v_85
  v_86
  v_87
  v_88
  U2
  L
  O
  H2
  Z2
  J1
  B
  X1
  R1
  P1
  G1
  V
  T
  N2
  X2
  Q1
  O2
  P2
  R2
  G2
  H
  S1
  A2
  N1
  C2
  B2
  V1
  W2
  K
  K1
  M2
  M1
  U1
  E2
  L1
  Y2
  D1
  Y1
  L2
  H1
  B3)
    )
  )
)
(assert
  (forall ( (A Int) (B Int) (C Int) (D Int) (E Int) (F Int) (G Int) (H Int) (I Int) (J Int) (K Int) (L Int) (M Int) (N Int) (O Int) (P Int) (Q Int) (R Int) (S Int) (T Int) (U Int) (V Int) (W Int) (X Int) (Y Int) (Z Int) (A1 Int) (B1 Int) (C1 Int) (D1 Int) (E1 Int) (F1 Int) (G1 Int) (H1 Int) (I1 Int) (J1 Int) (K1 Int) (L1 Int) (M1 Int) (N1 Int) (O1 Int) (P1 Int) (Q1 Int) (R1 Int) (S1 Int) (T1 Int) (U1 Int) (V1 Int) (W1 Int) (X1 Int) (Y1 Int) (Z1 Int) (A2 Int) (B2 Int) (C2 Int) (D2 Int) (E2 Int) (F2 Int) (G2 Int) (H2 Int) (I2 Int) (J2 Int) (K2 Int) (L2 Int) (M2 Int) (N2 Int) (O2 Int) (P2 Int) (Q2 Int) (R2 Int) (S2 Int) (T2 Int) (U2 Int) (V2 Int) (W2 Int) (X2 Int) (v_76 Int) (v_77 Int) (v_78 Int) (v_79 Int) ) 
    (=>
      (and
        (|<Main: void main(JayArray_java_lang_String)>_Block14_3|
  X1
  P1
  E2
  M2
  D1
  R2
  V2
  C1
  C
  M
  X2
  H2
  K1
  M1
  W1
  G2
  R
  S1
  A
  T
  L1
  U1
  V1
  P
  G1
  O2
  T2
  I2
  J
  F
  O
  U
  S
  S2
  F2
  v_76
  v_77
  v_78
  v_79
  A1
  H1
  D
  L2
  Z
  B1
  F1
  I1
  Q2
  J2
  E
  Y
  J1
  W
  V
  O1
  U2
  N1
  B2
  K
  B
  H
  K2
  D2
  E1
  T1
  I
  R1
  W2
  L
  C2
  P2
  G
  Y1
  Q1
  Q
  A2
  X
  Z1
  N2
  N)
        (and (= v_76 X1) (= v_77 P1) (= v_78 E2) (= v_79 M2) (= X1 1))
      )
      (|<Main: void main(JayArray_java_lang_String)>_Block14_4|
  X1
  P1
  E2
  M2
  D1
  R2
  V2
  C1
  C
  M
  X2
  H2
  K1
  M1
  W1
  G2
  R
  S1
  A
  T
  L1
  U1
  V1
  P
  G1
  O2
  T2
  I2
  J
  F
  O
  U
  S
  S2
  F2
  A1
  H1
  D
  L2
  Z
  B1
  F1
  I1
  Q2
  J2
  V
  O1
  U2
  N1
  B2
  K
  Y
  J1
  W
  D2
  E1
  T1
  I
  R1
  W2
  L
  C2
  P2
  G
  Y1
  Q1
  Q
  A2
  X
  Z1
  N2
  N)
    )
  )
)
(assert
  (forall ( (A Int) (B Int) (C Int) (D Int) (E Int) (F Int) (G Int) (H Int) (I Int) (J Int) (K Int) (L Int) (M Int) (N Int) (O Int) (P Int) (Q Int) (R Int) (S Int) (T Int) (U Int) (V Int) (W Int) (X Int) (Y Int) (Z Int) (A1 Int) (B1 Int) (C1 Int) (D1 Int) (E1 Int) (F1 Int) (G1 Int) (H1 Int) (I1 Int) (J1 Int) (K1 Int) (L1 Int) (M1 Int) (N1 Int) (O1 Int) (P1 Int) (Q1 Int) (R1 Int) (S1 Int) (T1 Int) (U1 Int) (V1 Int) (W1 Int) (X1 Int) (Y1 Int) (Z1 Int) (A2 Int) (B2 Int) (C2 Int) (D2 Int) (E2 Int) (F2 Int) (G2 Int) (H2 Int) (I2 Int) (J2 Int) (K2 Int) (L2 Int) (M2 Int) (N2 Int) (O2 Int) (P2 Int) (Q2 Int) (R2 Int) (S2 Int) (T2 Int) (U2 Int) ) 
    (=>
      (and
        (|<Main: void main(JayArray_java_lang_String)>_Block14_4|
  N1
  Z
  E2
  B2
  R2
  O1
  Q1
  T
  H
  F2
  G
  C1
  T2
  L
  J
  D2
  A
  R
  Q2
  K1
  M
  X
  C2
  J2
  A2
  V1
  G1
  E1
  J1
  V
  F
  E
  P2
  G2
  K
  F1
  N
  R1
  Q
  S1
  S
  P1
  H2
  Y1
  M2
  O2
  I2
  U1
  L2
  D1
  Y
  D
  S2
  O
  B1
  X1
  H1
  I
  Z1
  T1
  P
  I1
  N2
  U2
  W
  U
  L1
  M1
  C
  K2
  B
  A1)
        true
      )
      (|<Main: void main(JayArray_java_lang_String)>_Block14_5|
  N1
  Z
  E2
  B2
  R2
  O1
  Q1
  T
  H
  F2
  G
  C1
  T2
  L
  J
  D2
  A
  R
  Q2
  K1
  M
  X
  C2
  J2
  A2
  V1
  G1
  E1
  J1
  V
  F
  E
  P2
  G2
  K
  F1
  N
  R1
  Q
  S1
  S
  W1
  P1
  H2
  Y1
  M2
  O2
  I2
  U1
  L2
  D1
  Y
  D
  S2
  O
  B1
  X1
  H1
  I
  Z1
  T1
  P
  I1
  N2
  U2
  W
  U
  L1
  M1
  C
  K2
  B
  A1)
    )
  )
)
(assert
  (forall ( (A Int) (B Int) (C Int) (D Int) (E Int) (F Int) (G Int) (H Int) (I Int) (J Int) (K Int) (L Int) (M Int) (N Int) (O Int) (P Int) (Q Int) (R Int) (S Int) (T Int) (U Int) (V Int) (W Int) (X Int) (Y Int) (Z Int) (A1 Int) (B1 Int) (C1 Int) (D1 Int) (E1 Int) (F1 Int) (G1 Int) (H1 Int) (I1 Int) (J1 Int) (K1 Int) (L1 Int) (M1 Int) (N1 Int) (O1 Int) (P1 Int) (Q1 Int) (R1 Int) (S1 Int) (T1 Int) (U1 Int) (V1 Int) (W1 Int) (X1 Int) (Y1 Int) (Z1 Int) (A2 Int) (B2 Int) (C2 Int) (D2 Int) (E2 Int) (F2 Int) (G2 Int) (H2 Int) (I2 Int) (J2 Int) (K2 Int) (L2 Int) (M2 Int) (N2 Int) (O2 Int) (P2 Int) (Q2 Int) (R2 Int) (S2 Int) (T2 Int) (U2 Int) ) 
    (=>
      (and
        (|<Main: void main(JayArray_java_lang_String)>_Block14_5|
  Q1
  O
  H2
  E1
  P2
  C1
  S
  Q2
  A2
  B2
  W
  B
  E
  D2
  S1
  D
  K1
  L1
  Y1
  T
  H1
  O1
  I1
  S2
  Z1
  M1
  Z
  N1
  I2
  J2
  R1
  K2
  F
  M2
  L2
  V
  F1
  C2
  N
  E2
  G
  D1
  X1
  R2
  J
  I
  Q
  R
  T1
  A
  M
  T2
  G1
  U2
  N2
  U1
  W1
  V1
  F2
  B1
  U
  J1
  G2
  C
  Y
  A1
  P
  K
  H
  O2
  L
  P1
  X)
        (not (= R2 0))
      )
      (|<Main: void main(JayArray_java_lang_String)>_Block14_6|
  Q1
  O
  H2
  E1
  P2
  C1
  S
  Q2
  A2
  B2
  W
  B
  E
  D2
  S1
  D
  K1
  L1
  Y1
  T
  H1
  O1
  I1
  S2
  Z1
  M1
  Z
  N1
  I2
  J2
  R1
  K2
  F
  M2
  L2
  V
  F1
  C2
  N
  E2
  G
  D1
  X1
  R2
  J
  I
  Q
  R
  T1
  A
  M
  T2
  G1
  U2
  N2
  U1
  W1
  V1
  F2
  B1
  U
  J1
  G2
  C
  Y
  A1
  P
  K
  H
  O2
  L
  P1
  X)
    )
  )
)
(assert
  (forall ( (A Int) (B Int) (C Int) (D Int) (E Int) (F Int) (G Int) (H Int) (I Int) (J Int) (K Int) (L Int) (M Int) (N Int) (O Int) (P Int) (Q Int) (R Int) (S Int) (T Int) (U Int) (V Int) (W Int) (X Int) (Y Int) (Z Int) (A1 Int) (B1 Int) (C1 Int) (D1 Int) (E1 Int) (F1 Int) (G1 Int) (H1 Int) (I1 Int) (J1 Int) (K1 Int) (L1 Int) (M1 Int) (N1 Int) (O1 Int) (P1 Int) (Q1 Int) (R1 Int) (S1 Int) (T1 Int) (U1 Int) (V1 Int) (W1 Int) (X1 Int) (Y1 Int) (Z1 Int) (A2 Int) (B2 Int) (C2 Int) (D2 Int) (E2 Int) (F2 Int) (G2 Int) (H2 Int) (I2 Int) (J2 Int) (K2 Int) (L2 Int) (M2 Int) (N2 Int) (O2 Int) (P2 Int) (Q2 Int) (R2 Int) (S2 Int) (T2 Int) (U2 Int) (V2 Int) ) 
    (=>
      (and
        (|<Main: void main(JayArray_java_lang_String)>_Block14_6|
  I2
  O2
  P1
  N
  D1
  T2
  M
  R2
  P
  H
  J
  L1
  Z1
  X1
  N2
  R
  O1
  K
  Q2
  M1
  Y
  C
  A
  A2
  S
  W1
  Y1
  U1
  I
  K1
  W
  L2
  V1
  N1
  V2
  U
  Q
  E2
  J1
  D2
  E
  V
  G
  S1
  C2
  L
  O
  M2
  F2
  B2
  H2
  F1
  B1
  D
  I1
  K2
  B
  U2
  T1
  G1
  J2
  H1
  G2
  R1
  E1
  A1
  X
  Q1
  C1
  S2
  F
  T
  Z)
        true
      )
      (|<Main: void main(JayArray_java_lang_String)>_Block14_7|
  I2
  O2
  P1
  N
  D1
  T2
  M
  R2
  P
  H
  J
  L1
  Z1
  X1
  N2
  R
  O1
  K
  Q2
  M1
  Y
  C
  A
  A2
  S
  W1
  Y1
  U1
  I
  K1
  W
  L2
  V1
  N1
  V2
  U
  Q
  E2
  J1
  D2
  E
  V
  G
  O
  M2
  P2
  S1
  C2
  L
  B1
  D
  I1
  K2
  B
  U2
  T1
  G1
  J2
  H1
  G2
  R1
  E1
  A1
  X
  Q1
  C1
  S2
  F
  T
  Z)
    )
  )
)
(assert
  (forall ( (A Int) (B Int) (C Int) (D Int) (E Int) (F Int) (G Int) (H Int) (I Int) (J Int) (K Int) (L Int) (M Int) (N Int) (O Int) (P Int) (Q Int) (R Int) (S Int) (T Int) (U Int) (V Int) (W Int) (X Int) (Y Int) (Z Int) (A1 Int) (B1 Int) (C1 Int) (D1 Int) (E1 Int) (F1 Int) (G1 Int) (H1 Int) (I1 Int) (J1 Int) (K1 Int) (L1 Int) (M1 Int) (N1 Int) (O1 Int) (P1 Int) (Q1 Int) (R1 Int) (S1 Int) (T1 Int) (U1 Int) (V1 Int) (W1 Int) (X1 Int) (Y1 Int) (Z1 Int) (A2 Int) (B2 Int) (C2 Int) (D2 Int) (E2 Int) (F2 Int) (G2 Int) (H2 Int) (I2 Int) (J2 Int) (K2 Int) (L2 Int) (M2 Int) (N2 Int) (O2 Int) (P2 Int) (Q2 Int) (R2 Int) (v_70 Int) (v_71 Int) (v_72 Int) ) 
    (=>
      (and
        (|<Main: void main(JayArray_java_lang_String)>_Block14_7|
  H
  F1
  C1
  B2
  R1
  N1
  U
  O2
  Q2
  S
  N
  M2
  D
  Y
  N2
  L1
  L
  O1
  K
  E1
  M
  T
  E2
  A2
  Z1
  G
  J
  F
  J1
  W1
  J2
  R
  E
  Q
  H1
  P
  L2
  Q1
  H2
  I
  K1
  R2
  I1
  W
  G1
  X1
  F2
  I2
  M1
  K2
  P1
  X
  Z
  D2
  A
  O
  Y1
  S1
  G2
  C
  V
  V1
  T1
  U1
  P2
  B
  B1
  C2
  D1
  A1)
        (and (= v_70 F2) (= v_71 I2) (= v_72 M1))
      )
      (|<Main: void main(JayArray_java_lang_String)>_Block14_8|
  H
  F1
  C1
  B2
  R1
  N1
  U
  O2
  Q2
  S
  N
  M2
  D
  Y
  N2
  L1
  L
  O1
  K
  E1
  M
  T
  E2
  A2
  Z1
  G
  J
  F
  J1
  W1
  J2
  R
  P
  L2
  Q1
  H2
  I
  K1
  F2
  I2
  M1
  R2
  I1
  W
  G1
  X1
  v_70
  v_71
  v_72
  K2
  P1
  X
  Z
  D2
  A
  O
  Y1
  S1
  G2
  C
  V
  V1
  T1
  U1
  P2
  B
  B1
  C2
  D1
  A1)
    )
  )
)
(assert
  (forall ( (A Int) (B Int) (C Int) (D Int) (E Int) (F Int) (G Int) (H Int) (I Int) (J Int) (K Int) (L Int) (M Int) (N Int) (O Int) (P Int) (Q Int) (R Int) (S Int) (T Int) (U Int) (V Int) (W Int) (X Int) (Y Int) (Z Int) (A1 Int) (B1 Int) (C1 Int) (D1 Int) (E1 Int) (F1 Int) (G1 Int) (H1 Int) (I1 Int) (J1 Int) (K1 Int) (L1 Int) (M1 Int) (N1 Int) (O1 Int) (P1 Int) (Q1 Int) (R1 Int) (S1 Int) (T1 Int) (U1 Int) (V1 Int) (W1 Int) (X1 Int) (Y1 Int) (Z1 Int) (A2 Int) (B2 Int) (C2 Int) (D2 Int) (E2 Int) (F2 Int) (G2 Int) (H2 Int) (I2 Int) (J2 Int) (K2 Int) (L2 Int) (M2 Int) (N2 Int) (O2 Int) (P2 Int) (Q2 Int) (R2 Int) ) 
    (=>
      (and
        (|<Main: void main(JayArray_java_lang_String)>_Block14_8|
  P2
  C
  K
  J
  N2
  U1
  Q2
  B
  D
  Y
  T
  G1
  B1
  N1
  G
  E2
  V1
  P
  X1
  E
  R2
  A2
  Q1
  C2
  M2
  S
  O2
  J1
  G2
  J2
  D1
  I
  W1
  M
  R
  H
  W
  O1
  U
  Z
  R1
  K1
  T1
  Z1
  S1
  F
  Y1
  A
  M1
  E1
  V
  P1
  Q
  L1
  B2
  L
  N
  X
  O
  D2
  A1
  H2
  F2
  K2
  F1
  L2
  I1
  I2
  H1
  C1)
        (and (<= K1 9223372036854775807) (<= (- 9223372036854775808) K1))
      )
      (|<Main: void main(JayArray_java_lang_String)>_Block14_9|
  P2
  C
  K
  J
  N2
  U1
  Q2
  B
  D
  Y
  T
  G1
  B1
  N1
  G
  E2
  V1
  P
  X1
  E
  R2
  A2
  Q1
  C2
  M2
  S
  O2
  J1
  G2
  J2
  D1
  I
  W1
  M
  R
  H
  W
  O1
  U
  Z
  R1
  K1
  T1
  Z1
  S1
  F
  Y1
  A
  M1
  E1
  V
  P1
  Q
  L1
  B2
  L
  N
  X
  O
  D2
  A1
  H2
  F2
  K2
  F1
  L2
  I1
  I2
  H1
  C1)
    )
  )
)
(assert
  (forall ( (A Int) (B Int) (C Int) (D Int) (E Int) (F Int) (G Int) (H Int) (I Int) (J Int) (K Int) (L Int) (M Int) (N Int) (O Int) (P Int) (Q Int) (R Int) (S Int) (T Int) (U Int) (V Int) (W Int) (X Int) (Y Int) (Z Int) (A1 Int) (B1 Int) (C1 Int) (D1 Int) (E1 Int) (F1 Int) (G1 Int) (H1 Int) (I1 Int) (J1 Int) (K1 Int) (L1 Int) (M1 Int) (N1 Int) (O1 Int) (P1 Int) (Q1 Int) (R1 Int) (S1 Int) (T1 Int) (U1 Int) (V1 Int) (W1 Int) (X1 Int) (Y1 Int) (Z1 Int) (A2 Int) (B2 Int) (C2 Int) (D2 Int) (E2 Int) (F2 Int) (G2 Int) (H2 Int) (I2 Int) (J2 Int) (K2 Int) (L2 Int) (M2 Int) (N2 Int) (O2 Int) (P2 Int) (Q2 Int) (R2 Int) (S2 Int) ) 
    (=>
      (and
        (|<Main: void main(JayArray_java_lang_String)>_Block14_9|
  S2
  B
  L1
  Y
  R1
  K2
  P2
  T1
  E
  F2
  B1
  C2
  C
  W1
  A1
  X
  L2
  A
  F1
  E2
  Q2
  I1
  S1
  U
  D1
  E1
  H2
  G
  N
  H
  I2
  O1
  Z
  L
  P
  O2
  V1
  D
  F
  S
  Y1
  X1
  R2
  Q
  I
  C1
  M
  V
  P1
  N2
  M1
  M2
  T
  K
  N1
  G1
  D2
  U1
  B2
  Q1
  J2
  W
  O
  K1
  J1
  J
  G2
  A2
  R
  Z1)
        (= H1 0)
      )
      (|<Main: void main(JayArray_java_lang_String)>_Block14_10|
  S2
  B
  L1
  Y
  R1
  K2
  P2
  T1
  E
  F2
  B1
  C2
  C
  W1
  A1
  X
  L2
  A
  F1
  E2
  Q2
  I1
  S1
  U
  D1
  E1
  H2
  G
  N
  H
  I2
  O1
  H1
  Z
  L
  P
  O2
  V1
  D
  F
  S
  Y1
  X1
  R2
  Q
  I
  C1
  M
  V
  P1
  N2
  M1
  M2
  T
  K
  N1
  G1
  D2
  U1
  B2
  Q1
  J2
  W
  O
  K1
  J1
  J
  G2
  A2
  R
  Z1)
    )
  )
)
(assert
  (forall ( (A Int) (B Int) (C Int) (D Int) (E Int) (F Int) (G Int) (H Int) (I Int) (J Int) (K Int) (L Int) (M Int) (N Int) (O Int) (P Int) (Q Int) (R Int) (S Int) (T Int) (U Int) (V Int) (W Int) (X Int) (Y Int) (Z Int) (A1 Int) (B1 Int) (C1 Int) (D1 Int) (E1 Int) (F1 Int) (G1 Int) (H1 Int) (I1 Int) (J1 Int) (K1 Int) (L1 Int) (M1 Int) (N1 Int) (O1 Int) (P1 Int) (Q1 Int) (R1 Int) (S1 Int) (T1 Int) (U1 Int) (V1 Int) (W1 Int) (X1 Int) (Y1 Int) (Z1 Int) (A2 Int) (B2 Int) (C2 Int) (D2 Int) (E2 Int) (F2 Int) (G2 Int) (H2 Int) (I2 Int) (J2 Int) (K2 Int) (L2 Int) (M2 Int) (N2 Int) (O2 Int) (P2 Int) (Q2 Int) (R2 Int) (S2 Int) ) 
    (=>
      (and
        (|<Main: void main(JayArray_java_lang_String)>_Block14_10|
  U
  C
  I2
  U1
  M1
  X
  D1
  R2
  B
  S
  S2
  V1
  I1
  P
  A1
  E2
  Q2
  L1
  H2
  G
  T
  W
  K2
  J2
  Q1
  X1
  Z
  G2
  Y
  K1
  E
  A2
  Z1
  C1
  O2
  S1
  M
  P2
  L
  J1
  O
  C2
  N
  D2
  K
  N1
  V
  Q
  O1
  F2
  E1
  B1
  W1
  G1
  P1
  Y1
  J
  A
  F
  R
  R1
  N2
  F1
  L2
  H1
  I
  B2
  D
  H
  M2
  T1)
        (not (= Z1 0))
      )
      |Assert #0: Main.java, line 13|
    )
  )
)
(assert
  (forall ( (A Int) (B Int) (C Int) (D Int) (E Int) (F Int) (G Int) (H Int) (I Int) (J Int) (K Int) (L Int) (M Int) (N Int) (O Int) (P Int) (Q Int) (R Int) (S Int) (T Int) (U Int) (V Int) (W Int) (X Int) (Y Int) (Z Int) (A1 Int) (B1 Int) (C1 Int) (D1 Int) (E1 Int) (F1 Int) ) 
    (=>
      (and
        true
      )
      (|<Main: void main(JayArray_java_lang_String)>_pre|
  E
  Z
  B
  B1
  A
  N
  X
  K
  F
  W
  D
  T
  S
  Q
  J
  U
  C
  C1
  G
  E1
  A1
  M
  V
  Y
  H
  L
  P
  F1
  O
  I
  R
  D1)
    )
  )
)
(assert
  (forall ( (CHC_COMP_UNUSED Bool) ) 
    (=>
      (and
        |Assert #0: Main.java, line 13|
        true
      )
      false
    )
  )
)

(check-sat)
(exit)
